NAME: map1_72
TYPE: TSP
COMMENT: autogenerated using a wonderful map creator
DIMENSION: 96
EDGE_WEIGHT_TYPE: EUC_2D
NODE_COORD_SECTION
1 4.0 2.0
2 3.0 2.0
3 4.0 5.0
4 3.0 5.0
5 4.0 8.0
6 3.0 8.0
7 79.0 2.0
8 80.0 2.0
9 79.0 5.0
10 80.0 5.0
11 79.0 8.0
12 80.0 8.0
13 2.0 2.0
14 1.0 2.0
15 81.0 5.0
16 82.0 5.0
17 2.0 8.0
18 1.0 8.0
19 81.0 2.0
20 82.0 2.0
21 2.0 5.0
22 1.0 5.0
23 81.0 8.0
24 82.0 8.0
25 79.0 3.0
26 80.0 3.0
27 79.0 6.0
28 80.0 6.0
29 79.0 9.0
30 80.0 9.0
31 4.0 3.0
32 3.0 3.0
33 4.0 6.0
34 3.0 6.0
35 4.0 9.0
36 3.0 9.0
37 81.0 3.0
38 82.0 3.0
39 2.0 6.0
40 1.0 6.0
41 81.0 9.0
42 82.0 9.0
43 2.0 3.0
44 1.0 3.0
45 81.0 6.0
46 82.0 6.0
47 2.0 9.0
48 1.0 9.0
49 64.0 5.0
50 22.0 8.0
51 31.0 8.0
52 22.0 5.0
53 36.0 4.0
54 58.0 4.0
55 20.0 8.0
56 55.0 5.0
57 14.0 7.0
58 58.0 7.0
59 69.0 7.0
60 42.0 2.0
61 75.0 5.0
62 44.0 2.0
63 42.0 8.0
64 35.0 2.0
65 66.0 5.0
66 68.0 8.0
67 24.0 2.0
68 66.0 8.0
69 26.0 2.0
70 25.0 4.0
71 68.0 5.0
72 13.0 5.0
73 46.0 8.0
74 48.0 5.0
75 15.0 5.0
76 39.0 2.0
77 72.0 2.0
78 72.0 5.0
79 37.0 2.0
80 70.0 2.0
81 17.0 2.0
82 50.0 2.0
83 70.0 8.0
84 59.0 8.0
85 8.0 2.0
86 74.0 8.0
87 28.0 8.0
88 17.0 8.0
89 19.0 5.0
90 41.0 5.0
91 65.0 8.0
92 8.0 8.0
93 43.0 5.0
94 19.0 8.0
95 32.0 8.0
96 63.0 8.0
97 54.0 5.0
98 45.0 2.0
99 67.0 2.0
100 21.0 8.0
101 12.0 2.0
102 58.0 2.0
103 58.0 8.0
104 69.0 8.0
105 45.0 8.0
106 69.0 5.0
107 34.0 8.0
108 12.0 8.0
109 62.0 2.0
110 49.0 2.0
111 71.0 2.0
112 18.0 2.0
113 49.0 5.0
114 73.0 2.0
115 16.0 8.0
116 29.0 5.0
117 20.0 2.0
118 53.0 2.0
119 53.0 8.0
120 29.0 8.0
START_DEPOT_SECTION
1
2
3
4
5
6
7
8
9
10
11
12
13
14
15
16
17
18
19
20
21
22
23
24
-1
END_DEPOT_SECTION
25
26
27
28
29
30
31
32
33
34
35
36
37
38
39
40
41
42
43
44
45
46
47
48
-1
EOF
